p cnf 13 49
1 2 7 0
-1 2 3 0
3 6 -10 0
4 -6 -8 0
-2 -5 7 0
-6 -9 -11 0
-1 3 -4 0
8 -9 10 0
2 3 -8 0
1 7 -12 0
-2 -7 11 0
-2 4 -11 0
5 9 -10 0
-2 -4 9 0
1 -7 12 0
-3 6 -8 0
-6 8 -9 0
8 -11 -12 0
3 7 -11 0
1 -7 11 0
3 4 8 0
-8 -12 13 0
1 -5 8 0
5 12 -13 0
-4 12 13 0
-1 -3 6 0
-2 -7 -13 0
4 -10 12 0
-3 6 12 0
3 -5 7 0
5 -8 -10 0
6 -7 -12 0
-1 -4 -11 0
4 -5 12 0
-2 -9 13 0
-1 8 -11 0
-5 -7 9 0
-3 5 -9 0
-3 -7 9 0
6 -7 -9 0
2 5 -6 0
1 7 13 0
2 -6 -11 0
-3 -9 -13 0
2 5 9 0
6 7 9 0
-11 -12 13 0
-2 8 10 0
2 -9 10 0
